hw5/hw5_2C.out
y [*,*]
:   1   2   3   4   5   6    :=
A   1   0   0   0   0   0
B   1   0   0   0   0   0
C   0   1   0   0   0   0
D   1   0   0   0   0   0
E   0   1   0   0   0   0
F   0   0   0   1   0   0
G   0   0   0   1   0   0
H   0   0   0   0   1   0
I   0   0   0   0   0   1
J   0   0   0   0   1   0
;

Cost = 428

